S = 5;
start = [|0,0,18,21,16,0,0,24,0,0,0,0,0,1,0,0,0,3,0,0,5,0,0,8,17|
20,11,17,23,0,0,0,0,0,0,0,5,0,0,6,18,16,0,0,21,0,0,0,0,0|
0,0,0,22,0,0,16,0,0,10,0,4,0,21,0,0,0,8,9,0,0,0,0,18,25|
0,0,0,2,0,0,0,11,14,0,9,0,0,3,8,0,0,0,0,0,0,0,0,0,22|
0,12,0,0,15,0,18,25,0,0,0,0,14,0,0,0,0,0,0,0,23,0,0,0,0|
13,14,0,0,0,0,0,2,3,0,0,25,4,0,0,0,0,23,0,0,0,0,19,0,15|
0,0,0,5,0,0,7,0,0,0,0,0,0,0,0,0,0,0,0,0,0,21,0,0,0|
0,0,0,0,2,0,0,0,8,0,0,0,0,0,0,0,4,25,0,10,0,0,0,0,0|
0,0,0,0,10,0,0,0,0,0,0,0,0,0,0,0,1,22,0,0,0,0,0,0,0|
0,0,0,0,0,1,4,21,0,0,0,17,0,5,14,2,7,0,0,0,20,0,0,0,18|
0,2,0,8,9,0,0,16,18,0,7,21,0,24,0,12,0,20,0,14,25,0,15,0,0|
0,0,0,0,0,4,12,0,0,0,6,0,0,0,9,0,0,11,8,0,3,0,0,7,0|
0,16,0,0,0,0,0,0,0,0,0,23,13,18,0,0,0,0,7,0,0,0,22,0,24|
7,15,0,0,22,0,0,0,5,0,0,12,0,0,25,3,0,24,0,13,0,18,0,2,14|
23,0,12,0,0,0,0,0,2,0,0,0,0,0,0,25,0,0,0,0,9,0,8,5,20|
0,0,0,0,20,0,6,4,0,0,0,1,0,0,15,0,0,0,0,0,0,5,0,0,0|
22,0,0,0,14,16,0,0,0,0,25,0,0,6,0,0,0,0,17,0,0,2,0,0,0|
0,4,1,0,11,22,0,0,0,2,0,0,7,0,5,0,0,6,0,12,0,16,24,0,0|
0,17,0,19,0,0,0,1,0,0,4,0,21,0,0,0,0,0,0,0,0,0,0,0,7|
0,0,0,0,6,0,19,9,0,0,16,0,0,20,0,13,14,0,1,2,4,0,0,0,0|
6,13,0,0,4,11,1,0,0,0,0,0,20,12,0,0,5,0,24,0,0,14,0,21,0|
0,18,24,9,0,0,0,0,0,25,0,0,0,0,16,21,0,0,0,1,0,7,4,0,0|
0,20,0,14,23,8,0,0,0,24,1,9,0,0,0,0,0,0,11,0,0,0,0,0,0|
0,0,11,0,0,0,0,6,15,0,0,0,0,0,0,0,13,12,0,0,10,20,0,0,0|
0,0,0,10,12,0,0,0,0,0,0,3,6,0,4,8,25,0,0,16,0,0,9,0,1|];